cost: 677.35
Route 1:           0   21   33    7   41    3   45   23   31   46   18    0
Route 2:           0   43   28   19   42   49   47    5   11   50   44   24   16   20    1   26    0
Route 3:           0   35   22   38   37   32   15   25   10    8   27   17   12    9    4   39   14   30    2   40    6    0
Route 4:           0   48   36   34   29   13    0
